Route #1: 24 17 14 2 36 10 11 1
Route #2: 43 13 42 30 5
Route #3: 29 6 34 18 26 25 16
Route #4: 20 7 15 3 9 40 33 44
Route #5: 12 35 38 41 31 21
Route #6: 39 22 8 28 32 23 37 19 27 4
Cost 678
Time 0.08346
